p cnf 14 11
-3 -14 0
-7 5 0
13 2 1 3 -5 7 11 8 9 -6 12 0
5 -9 12 11 13 -6 -10 -7 0
-6 7 -3 12 -14 13 -5 8 0
-2 -1 -12 11 0
-10 -3 -13 6 -9 5 4 8 11 -1 0
8 -12 10 14 -1 7 11 6 0
-4 10 0
5 -8 10 0
-9 3 13 -14 0
